40	100	100	100
64	83	93
83	73	72
67	58	86
87	59	90
50	92	61
71	60	59
55	76	61
77	82	83
89	81	54
64	89	74
95	72	56
74	50	98
70	68	75
75	99	87
57	71	66
83	60	76
65	92	67
96	66	93
96	83	72
66	66	70
54	63	94
98	98	72
81	71	63
88	80	60
53	77	98
98	58	82
96	83	57
72	90	79
66	97	56
90	67	89
51	71	74
71	65	81
82	65	51
58	62	87
95	57	64
58	86	56
79	53	62
72	91	63
87	87	76
52	80	53
